certificates/rado_a30_c28_N95.cnf
c Rad2 upper bound instance: x1 + 30*x2 - x3 = 28, interval [1,95]
p cnf 95 384
1 3 0
-1 -3 0
1 2 33 0
-1 -2 -33 0
1 3 63 0
-1 -3 -63 0
1 4 93 0
-1 -4 -93 0
1 2 4 0
-1 -2 -4 0
2 34 0
-2 -34 0
2 3 64 0
-2 -3 -64 0
2 4 94 0
-2 -4 -94 0
1 3 5 0
-1 -3 -5 0
2 3 35 0
-2 -3 -35 0
3 65 0
-3 -65 0
3 4 95 0
-3 -4 -95 0
1 4 6 0
-1 -4 -6 0
2 4 36 0
-2 -4 -36 0
3 4 66 0
-3 -4 -66 0
1 5 7 0
-1 -5 -7 0
2 5 37 0
-2 -5 -37 0
3 5 67 0
-3 -5 -67 0
1 6 8 0
-1 -6 -8 0
2 6 38 0
-2 -6 -38 0
3 6 68 0
-3 -6 -68 0
1 7 9 0
-1 -7 -9 0
2 7 39 0
-2 -7 -39 0
3 7 69 0
-3 -7 -69 0
1 8 10 0
-1 -8 -10 0
2 8 40 0
-2 -8 -40 0
3 8 70 0
-3 -8 -70 0
1 9 11 0
-1 -9 -11 0
2 9 41 0
-2 -9 -41 0
3 9 71 0
-3 -9 -71 0
1 10 12 0
-1 -10 -12 0
2 10 42 0
-2 -10 -42 0
3 10 72 0
-3 -10 -72 0
1 11 13 0
-1 -11 -13 0
2 11 43 0
-2 -11 -43 0
3 11 73 0
-3 -11 -73 0
1 12 14 0
-1 -12 -14 0
2 12 44 0
-2 -12 -44 0
3 12 74 0
-3 -12 -74 0
1 13 15 0
-1 -13 -15 0
2 13 45 0
-2 -13 -45 0
3 13 75 0
-3 -13 -75 0
1 14 16 0
-1 -14 -16 0
2 14 46 0
-2 -14 -46 0
3 14 76 0
-3 -14 -76 0
1 15 17 0
-1 -15 -17 0
2 15 47 0
-2 -15 -47 0
3 15 77 0
-3 -15 -77 0
1 16 18 0
-1 -16 -18 0
2 16 48 0
-2 -16 -48 0
3 16 78 0
-3 -16 -78 0
1 17 19 0
-1 -17 -19 0
2 17 49 0
-2 -17 -49 0
3 17 79 0
-3 -17 -79 0
1 18 20 0
-1 -18 -20 0
2 18 50 0
-2 -18 -50 0
3 18 80 0
-3 -18 -80 0
1 19 21 0
-1 -19 -21 0
2 19 51 0
-2 -19 -51 0
3 19 81 0
-3 -19 -81 0
1 20 22 0
-1 -20 -22 0
2 20 52 0
-2 -20 -52 0
3 20 82 0
-3 -20 -82 0
1 21 23 0
-1 -21 -23 0
2 21 53 0
-2 -21 -53 0
3 21 83 0
-3 -21 -83 0
1 22 24 0
-1 -22 -24 0
2 22 54 0
-2 -22 -54 0
3 22 84 0
-3 -22 -84 0
1 23 25 0
-1 -23 -25 0
2 23 55 0
-2 -23 -55 0
3 23 85 0
-3 -23 -85 0
1 24 26 0
-1 -24 -26 0
2 24 56 0
-2 -24 -56 0
3 24 86 0
-3 -24 -86 0
1 25 27 0
-1 -25 -27 0
2 25 57 0
-2 -25 -57 0
3 25 87 0
-3 -25 -87 0
1 26 28 0
-1 -26 -28 0
2 26 58 0
-2 -26 -58 0
3 26 88 0
-3 -26 -88 0
1 27 29 0
-1 -27 -29 0
2 27 59 0
-2 -27 -59 0
3 27 89 0
-3 -27 -89 0
1 28 30 0
-1 -28 -30 0
2 28 60 0
-2 -28 -60 0
3 28 90 0
-3 -28 -90 0
1 29 31 0
-1 -29 -31 0
2 29 61 0
-2 -29 -61 0
3 29 91 0
-3 -29 -91 0
1 30 32 0
-1 -30 -32 0
2 30 62 0
-2 -30 -62 0
3 30 92 0
-3 -30 -92 0
1 31 33 0
-1 -31 -33 0
2 31 63 0
-2 -31 -63 0
3 31 93 0
-3 -31 -93 0
1 32 34 0
-1 -32 -34 0
2 32 64 0
-2 -32 -64 0
3 32 94 0
-3 -32 -94 0
1 33 35 0
-1 -33 -35 0
2 33 65 0
-2 -33 -65 0
3 33 95 0
-3 -33 -95 0
1 34 36 0
-1 -34 -36 0
2 34 66 0
-2 -34 -66 0
1 35 37 0
-1 -35 -37 0
2 35 67 0
-2 -35 -67 0
1 36 38 0
-1 -36 -38 0
2 36 68 0
-2 -36 -68 0
1 37 39 0
-1 -37 -39 0
2 37 69 0
-2 -37 -69 0
1 38 40 0
-1 -38 -40 0
2 38 70 0
-2 -38 -70 0
1 39 41 0
-1 -39 -41 0
2 39 71 0
-2 -39 -71 0
1 40 42 0
-1 -40 -42 0
2 40 72 0
-2 -40 -72 0
1 41 43 0
-1 -41 -43 0
2 41 73 0
-2 -41 -73 0
1 42 44 0
-1 -42 -44 0
2 42 74 0
-2 -42 -74 0
1 43 45 0
-1 -43 -45 0
2 43 75 0
-2 -43 -75 0
1 44 46 0
-1 -44 -46 0
2 44 76 0
-2 -44 -76 0
1 45 47 0
-1 -45 -47 0
2 45 77 0
-2 -45 -77 0
1 46 48 0
-1 -46 -48 0
2 46 78 0
-2 -46 -78 0
1 47 49 0
-1 -47 -49 0
2 47 79 0
-2 -47 -79 0
1 48 50 0
-1 -48 -50 0
2 48 80 0
-2 -48 -80 0
1 49 51 0
-1 -49 -51 0
2 49 81 0
-2 -49 -81 0
1 50 52 0
-1 -50 -52 0
2 50 82 0
-2 -50 -82 0
1 51 53 0
-1 -51 -53 0
2 51 83 0
-2 -51 -83 0
1 52 54 0
-1 -52 -54 0
2 52 84 0
-2 -52 -84 0
1 53 55 0
-1 -53 -55 0
2 53 85 0
-2 -53 -85 0
1 54 56 0
-1 -54 -56 0
2 54 86 0
-2 -54 -86 0
1 55 57 0
-1 -55 -57 0
2 55 87 0
-2 -55 -87 0
1 56 58 0
-1 -56 -58 0
2 56 88 0
-2 -56 -88 0
1 57 59 0
-1 -57 -59 0
2 57 89 0
-2 -57 -89 0
1 58 60 0
-1 -58 -60 0
2 58 90 0
-2 -58 -90 0
1 59 61 0
-1 -59 -61 0
2 59 91 0
-2 -59 -91 0
1 60 62 0
-1 -60 -62 0
2 60 92 0
-2 -60 -92 0
1 61 63 0
-1 -61 -63 0
2 61 93 0
-2 -61 -93 0
1 62 64 0
-1 -62 -64 0
2 62 94 0
-2 -62 -94 0
1 63 65 0
-1 -63 -65 0
2 63 95 0
-2 -63 -95 0
1 64 66 0
-1 -64 -66 0
1 65 67 0
-1 -65 -67 0
1 66 68 0
-1 -66 -68 0
1 67 69 0
-1 -67 -69 0
1 68 70 0
-1 -68 -70 0
1 69 71 0
-1 -69 -71 0
1 70 72 0
-1 -70 -72 0
1 71 73 0
-1 -71 -73 0
1 72 74 0
-1 -72 -74 0
1 73 75 0
-1 -73 -75 0
1 74 76 0
-1 -74 -76 0
1 75 77 0
-1 -75 -77 0
1 76 78 0
-1 -76 -78 0
1 77 79 0
-1 -77 -79 0
1 78 80 0
-1 -78 -80 0
1 79 81 0
-1 -79 -81 0
1 80 82 0
-1 -80 -82 0
1 81 83 0
-1 -81 -83 0
1 82 84 0
-1 -82 -84 0
1 83 85 0
-1 -83 -85 0
1 84 86 0
-1 -84 -86 0
1 85 87 0
-1 -85 -87 0
1 86 88 0
-1 -86 -88 0
1 87 89 0
-1 -87 -89 0
1 88 90 0
-1 -88 -90 0
1 89 91 0
-1 -89 -91 0
1 90 92 0
-1 -90 -92 0
1 91 93 0
-1 -91 -93 0
1 92 94 0
-1 -92 -94 0
1 93 95 0
-1 -93 -95 0
