certificates/rado_a30_c28_N95.drat
-93 -95 0
d -93 -1 -95 0
31 33 93 0
-3 -95 0
-95 0
93 0
3 0
-1 0
-65 0
-31 0
67 0
63 0
33 0
29 0
-5 0
-91 0
7 0
89 0
-69 0
-27 0
71 0
25 0
-9 0
-87 0
11 0
85 0
-73 0
-23 0
75 0
21 0
-13 0
-83 0
15 0
81 0
-77 0
-19 0
79 0
17 0
0
